(set-info :source  loris-7.ddns.comp.nus.edu.sg/~project/hip/) 
;Variables declarations
(declare-fun n () Int)
(declare-fun tx_1402 () Int)
(declare-fun ty_primed () Int)
(declare-fun ty () Int)
(declare-fun y_primed () Int)
(declare-fun tx_primed () Int)
(declare-fun tx () Int)
(declare-fun x_primed () Int)
(declare-fun flted_19_1422 () Int)
(declare-fun tx_1421 () Int)
(declare-fun m () Int)
(declare-fun ty_1403 () Int)
(declare-fun x () Int)
(declare-fun r_1424 () Int)
(declare-fun y () Int)
;Relations declarations
;Axioms assertions
;Antecedent
(assert (= (+ flted_19_1422 1) n))
(assert (> r_1424 0))
(assert (= tx_1421 tx_1402))
(assert (= ty_1403 ty))
(assert (= tx_1402 tx))
(assert (= ty_primed ty))
(assert (= y_primed y))
(assert (= tx_primed tx))
(assert (= x_primed x))
(assert (= x 1))
(assert (or (and (and (= flted_19_1422 1) (= r_1424 tx_1421)) (> tx_1421 0)) (and (and (<= 2 flted_19_1422) (> tx_1421 0)) (> r_1424 0))))
(assert (or (and (and (= m 1) (= y ty_1403)) (> ty_1403 0)) (and (and (<= 2 m) (> ty_1403 0)) (> y 0))))
(assert (not (= x y)))
(assert (not (= x r_1424)))
(assert (not (= r_1424 y)))
;Negation of Consequence
(assert (not false))
(check-sat)